c description: Tseitin formula on Random 5-regular graph of 50 vertices, with odd charge
c generator: CNFgen (0.9.0)
c copyright: (C) 2012-2020 Massimo Lauria <massimo.lauria@uniroma1.it>
c url: https://massimolauria.net/cnfgen
c random seed: 1
c command line: cnfgen --seed 1 tseitin randomodd gnd 50 5
c
p cnf 125 800
1 2 3 4 -5 0
1 2 3 -4 5 0
1 2 -3 4 5 0
1 2 -3 -4 -5 0
1 -2 3 4 5 0
1 -2 3 -4 -5 0
1 -2 -3 4 -5 0
1 -2 -3 -4 5 0
-1 2 3 4 5 0
-1 2 3 -4 -5 0
-1 2 -3 4 -5 0
-1 2 -3 -4 5 0
-1 -2 3 4 -5 0
-1 -2 3 -4 5 0
-1 -2 -3 4 5 0
-1 -2 -3 -4 -5 0
6 7 8 9 -10 0
6 7 8 -9 10 0
6 7 -8 9 10 0
6 7 -8 -9 -10 0
6 -7 8 9 10 0
6 -7 8 -9 -10 0
6 -7 -8 9 -10 0
6 -7 -8 -9 10 0
-6 7 8 9 10 0
-6 7 8 -9 -10 0
-6 7 -8 9 -10 0
-6 7 -8 -9 10 0
-6 -7 8 9 -10 0
-6 -7 8 -9 10 0
-6 -7 -8 9 10 0
-6 -7 -8 -9 -10 0
11 12 13 14 15 0
11 12 13 -14 -15 0
11 12 -13 14 -15 0
11 12 -13 -14 15 0
11 -12 13 14 -15 0
11 -12 13 -14 15 0
11 -12 -13 14 15 0
11 -12 -13 -14 -15 0
-11 12 13 14 -15 0
-11 12 13 -14 15 0
-11 12 -13 14 15 0
-11 12 -13 -14 -15 0
-11 -12 13 14 15 0
-11 -12 13 -14 -15 0
-11 -12 -13 14 -15 0
-11 -12 -13 -14 15 0
16 17 18 19 -20 0
16 17 18 -19 20 0
16 17 -18 19 20 0
16 17 -18 -19 -20 0
16 -17 18 19 20 0
16 -17 18 -19 -20 0
16 -17 -18 19 -20 0
16 -17 -18 -19 20 0
-16 17 18 19 20 0
-16 17 18 -19 -20 0
-16 17 -18 19 -20 0
-16 17 -18 -19 20 0
-16 -17 18 19 -20 0
-16 -17 18 -19 20 0
-16 -17 -18 19 20 0
-16 -17 -18 -19 -20 0
11 21 22 23 24 0
11 21 22 -23 -24 0
11 21 -22 23 -24 0
11 21 -22 -23 24 0
11 -21 22 23 -24 0
11 -21 22 -23 24 0
11 -21 -22 23 24 0
11 -21 -22 -23 -24 0
-11 21 22 23 -24 0
-11 21 22 -23 24 0
-11 21 -22 23 24 0
-11 21 -22 -23 -24 0
-11 -21 22 23 24 0
-11 -21 22 -23 -24 0
-11 -21 -22 23 -24 0
-11 -21 -22 -23 24 0
25 26 27 28 29 0
25 26 27 -28 -29 0
25 26 -27 28 -29 0
25 26 -27 -28 29 0
25 -26 27 28 -29 0
25 -26 27 -28 29 0
25 -26 -27 28 29 0
25 -26 -27 -28 -29 0
-25 26 27 28 -29 0
-25 26 27 -28 29 0
-25 26 -27 28 29 0
-25 26 -27 -28 -29 0
-25 -26 27 28 29 0
-25 -26 27 -28 -29 0
-25 -26 -27 28 -29 0
-25 -26 -27 -28 29 0
30 31 32 33 34 0
30 31 32 -33 -34 0
30 31 -32 33 -34 0
30 31 -32 -33 34 0
30 -31 32 33 -34 0
30 -31 32 -33 34 0
30 -31 -32 33 34 0
30 -31 -32 -33 -34 0
-30 31 32 33 -34 0
-30 31 32 -33 34 0
-30 31 -32 33 34 0
-30 31 -32 -33 -34 0
-30 -31 32 33 34 0
-30 -31 32 -33 -34 0
-30 -31 -32 33 -34 0
-30 -31 -32 -33 34 0
35 36 37 38 39 0
35 36 37 -38 -39 0
35 36 -37 38 -39 0
35 36 -37 -38 39 0
35 -36 37 38 -39 0
35 -36 37 -38 39 0
35 -36 -37 38 39 0
35 -36 -37 -38 -39 0
-35 36 37 38 -39 0
-35 36 37 -38 39 0
-35 36 -37 38 39 0
-35 36 -37 -38 -39 0
-35 -36 37 38 39 0
-35 -36 37 -38 -39 0
-35 -36 -37 38 -39 0
-35 -36 -37 -38 39 0
21 25 40 41 -42 0
21 25 40 -41 42 0
21 25 -40 41 42 0
21 25 -40 -41 -42 0
21 -25 40 41 42 0
21 -25 40 -41 -42 0
21 -25 -40 41 -42 0
21 -25 -40 -41 42 0
-21 25 40 41 42 0
-21 25 40 -41 -42 0
-21 25 -40 41 -42 0
-21 25 -40 -41 42 0
-21 -25 40 41 -42 0
-21 -25 40 -41 42 0
-21 -25 -40 41 42 0
-21 -25 -40 -41 -42 0
43 44 45 46 -47 0
43 44 45 -46 47 0
43 44 -45 46 47 0
43 44 -45 -46 -47 0
43 -44 45 46 47 0
43 -44 45 -46 -47 0
43 -44 -45 46 -47 0
43 -44 -45 -46 47 0
-43 44 45 46 47 0
-43 44 45 -46 -47 0
-43 44 -45 46 -47 0
-43 44 -45 -46 47 0
-43 -44 45 46 -47 0
-43 -44 45 -46 47 0
-43 -44 -45 46 47 0
-43 -44 -45 -46 -47 0
6 48 49 50 51 0
6 48 49 -50 -51 0
6 48 -49 50 -51 0
6 48 -49 -50 51 0
6 -48 49 50 -51 0
6 -48 49 -50 51 0
6 -48 -49 50 51 0
6 -48 -49 -50 -51 0
-6 48 49 50 -51 0
-6 48 49 -50 51 0
-6 48 -49 50 51 0
-6 48 -49 -50 -51 0
-6 -48 49 50 51 0
-6 -48 49 -50 -51 0
-6 -48 -49 50 -51 0
-6 -48 -49 -50 51 0
52 53 54 55 -56 0
52 53 54 -55 56 0
52 53 -54 55 56 0
52 53 -54 -55 -56 0
52 -53 54 55 56 0
52 -53 54 -55 -56 0
52 -53 -54 55 -56 0
52 -53 -54 -55 56 0
-52 53 54 55 56 0
-52 53 54 -55 -56 0
-52 53 -54 55 -56 0
-52 53 -54 -55 56 0
-52 -53 54 55 -56 0
-52 -53 54 -55 56 0
-52 -53 -54 55 56 0
-52 -53 -54 -55 -56 0
7 52 57 58 59 0
7 52 57 -58 -59 0
7 52 -57 58 -59 0
7 52 -57 -58 59 0
7 -52 57 58 -59 0
7 -52 57 -58 59 0
7 -52 -57 58 59 0
7 -52 -57 -58 -59 0
-7 52 57 58 -59 0
-7 52 57 -58 59 0
-7 52 -57 58 59 0
-7 52 -57 -58 -59 0
-7 -52 57 58 59 0
-7 -52 57 -58 -59 0
-7 -52 -57 58 -59 0
-7 -52 -57 -58 59 0
1 8 60 61 62 0
1 8 60 -61 -62 0
1 8 -60 61 -62 0
1 8 -60 -61 62 0
1 -8 60 61 -62 0
1 -8 60 -61 62 0
1 -8 -60 61 62 0
1 -8 -60 -61 -62 0
-1 8 60 61 -62 0
-1 8 60 -61 62 0
-1 8 -60 61 62 0
-1 8 -60 -61 -62 0
-1 -8 60 61 62 0
-1 -8 60 -61 -62 0
-1 -8 -60 61 -62 0
-1 -8 -60 -61 62 0
12 26 53 63 -64 0
12 26 53 -63 64 0
12 26 -53 63 64 0
12 26 -53 -63 -64 0
12 -26 53 63 64 0
12 -26 53 -63 -64 0
12 -26 -53 63 -64 0
12 -26 -53 -63 64 0
-12 26 53 63 64 0
-12 26 53 -63 -64 0
-12 26 -53 63 -64 0
-12 26 -53 -63 64 0
-12 -26 53 63 -64 0
-12 -26 53 -63 64 0
-12 -26 -53 63 64 0
-12 -26 -53 -63 -64 0
65 66 67 68 69 0
65 66 67 -68 -69 0
65 66 -67 68 -69 0
65 66 -67 -68 69 0
65 -66 67 68 -69 0
65 -66 67 -68 69 0
65 -66 -67 68 69 0
65 -66 -67 -68 -69 0
-65 66 67 68 -69 0
-65 66 67 -68 69 0
-65 66 -67 68 69 0
-65 66 -67 -68 -69 0
-65 -66 67 68 69 0
-65 -66 67 -68 -69 0
-65 -66 -67 68 -69 0
-65 -66 -67 -68 69 0
22 35 40 43 70 0
22 35 40 -43 -70 0
22 35 -40 43 -70 0
22 35 -40 -43 70 0
22 -35 40 43 -70 0
22 -35 40 -43 70 0
22 -35 -40 43 70 0
22 -35 -40 -43 -70 0
-22 35 40 43 -70 0
-22 35 40 -43 70 0
-22 35 -40 43 70 0
-22 35 -40 -43 -70 0
-22 -35 40 43 70 0
-22 -35 40 -43 -70 0
-22 -35 -40 43 -70 0
-22 -35 -40 -43 70 0
36 57 71 72 -73 0
36 57 71 -72 73 0
36 57 -71 72 73 0
36 57 -71 -72 -73 0
36 -57 71 72 73 0
36 -57 71 -72 -73 0
36 -57 -71 72 -73 0
36 -57 -71 -72 73 0
-36 57 71 72 73 0
-36 57 71 -72 -73 0
-36 57 -71 72 -73 0
-36 57 -71 -72 73 0
-36 -57 71 72 -73 0
-36 -57 71 -72 73 0
-36 -57 -71 72 73 0
-36 -57 -71 -72 -73 0
2 44 74 75 -76 0
2 44 74 -75 76 0
2 44 -74 75 76 0
2 44 -74 -75 -76 0
2 -44 74 75 76 0
2 -44 74 -75 -76 0
2 -44 -74 75 -76 0
2 -44 -74 -75 76 0
-2 44 74 75 76 0
-2 44 74 -75 -76 0
-2 44 -74 75 -76 0
-2 44 -74 -75 76 0
-2 -44 74 75 -76 0
-2 -44 74 -75 76 0
-2 -44 -74 75 76 0
-2 -44 -74 -75 -76 0
30 45 77 78 79 0
30 45 77 -78 -79 0
30 45 -77 78 -79 0
30 45 -77 -78 79 0
30 -45 77 78 -79 0
30 -45 77 -78 79 0
30 -45 -77 78 79 0
30 -45 -77 -78 -79 0
-30 45 77 78 -79 0
-30 45 77 -78 79 0
-30 45 -77 78 79 0
-30 45 -77 -78 -79 0
-30 -45 77 78 79 0
-30 -45 77 -78 -79 0
-30 -45 -77 78 -79 0
-30 -45 -77 -78 79 0
27 71 80 81 -82 0
27 71 80 -81 82 0
27 71 -80 81 82 0
27 71 -80 -81 -82 0
27 -71 80 81 82 0
27 -71 80 -81 -82 0
27 -71 -80 81 -82 0
27 -71 -80 -81 82 0
-27 71 80 81 82 0
-27 71 80 -81 -82 0
-27 71 -80 81 -82 0
-27 71 -80 -81 82 0
-27 -71 80 81 -82 0
-27 -71 80 -81 82 0
-27 -71 -80 81 82 0
-27 -71 -80 -81 -82 0
31 65 83 84 -85 0
31 65 83 -84 85 0
31 65 -83 84 85 0
31 65 -83 -84 -85 0
31 -65 83 84 85 0
31 -65 83 -84 -85 0
31 -65 -83 84 -85 0
31 -65 -83 -84 85 0
-31 65 83 84 85 0
-31 65 83 -84 -85 0
-31 65 -83 84 -85 0
-31 65 -83 -84 85 0
-31 -65 83 84 -85 0
-31 -65 83 -84 85 0
-31 -65 -83 84 85 0
-31 -65 -83 -84 -85 0
23 48 80 86 -87 0
23 48 80 -86 87 0
23 48 -80 86 87 0
23 48 -80 -86 -87 0
23 -48 80 86 87 0
23 -48 80 -86 -87 0
23 -48 -80 86 -87 0
23 -48 -80 -86 87 0
-23 48 80 86 87 0
-23 48 80 -86 -87 0
-23 48 -80 86 -87 0
-23 48 -80 -86 87 0
-23 -48 80 86 -87 0
-23 -48 80 -86 87 0
-23 -48 -80 86 87 0
-23 -48 -80 -86 -87 0
13 37 46 88 -89 0
13 37 46 -88 89 0
13 37 -46 88 89 0
13 37 -46 -88 -89 0
13 -37 46 88 89 0
13 -37 46 -88 -89 0
13 -37 -46 88 -89 0
13 -37 -46 -88 89 0
-13 37 46 88 89 0
-13 37 46 -88 -89 0
-13 37 -46 88 -89 0
-13 37 -46 -88 89 0
-13 -37 46 88 -89 0
-13 -37 46 -88 89 0
-13 -37 -46 88 89 0
-13 -37 -46 -88 -89 0
3 47 83 90 91 0
3 47 83 -90 -91 0
3 47 -83 90 -91 0
3 47 -83 -90 91 0
3 -47 83 90 -91 0
3 -47 83 -90 91 0
3 -47 -83 90 91 0
3 -47 -83 -90 -91 0
-3 47 83 90 -91 0
-3 47 83 -90 91 0
-3 47 -83 90 91 0
-3 47 -83 -90 -91 0
-3 -47 83 90 91 0
-3 -47 83 -90 -91 0
-3 -47 -83 90 -91 0
-3 -47 -83 -90 91 0
16 32 92 93 -94 0
16 32 92 -93 94 0
16 32 -92 93 94 0
16 32 -92 -93 -94 0
16 -32 92 93 94 0
16 -32 92 -93 -94 0
16 -32 -92 93 -94 0
16 -32 -92 -93 94 0
-16 32 92 93 94 0
-16 32 92 -93 -94 0
-16 32 -92 93 -94 0
-16 32 -92 -93 94 0
-16 -32 92 93 -94 0
-16 -32 92 -93 94 0
-16 -32 -92 93 94 0
-16 -32 -92 -93 -94 0
66 95 96 97 98 0
66 95 96 -97 -98 0
66 95 -96 97 -98 0
66 95 -96 -97 98 0
66 -95 96 97 -98 0
66 -95 96 -97 98 0
66 -95 -96 97 98 0
66 -95 -96 -97 -98 0
-66 95 96 97 -98 0
-66 95 96 -97 98 0
-66 95 -96 97 98 0
-66 95 -96 -97 -98 0
-66 -95 96 97 98 0
-66 -95 96 -97 -98 0
-66 -95 -96 97 -98 0
-66 -95 -96 -97 98 0
24 72 99 100 -101 0
24 72 99 -100 101 0
24 72 -99 100 101 0
24 72 -99 -100 -101 0
24 -72 99 100 101 0
24 -72 99 -100 -101 0
24 -72 -99 100 -101 0
24 -72 -99 -100 101 0
-24 72 99 100 101 0
-24 72 99 -100 -101 0
-24 72 -99 100 -101 0
-24 72 -99 -100 101 0
-24 -72 99 100 -101 0
-24 -72 99 -100 101 0
-24 -72 -99 100 101 0
-24 -72 -99 -100 -101 0
17 28 90 95 -102 0
17 28 90 -95 102 0
17 28 -90 95 102 0
17 28 -90 -95 -102 0
17 -28 90 95 102 0
17 -28 90 -95 -102 0
17 -28 -90 95 -102 0
17 -28 -90 -95 102 0
-17 28 90 95 102 0
-17 28 90 -95 -102 0
-17 28 -90 95 -102 0
-17 28 -90 -95 102 0
-17 -28 90 95 -102 0
-17 -28 90 -95 102 0
-17 -28 -90 95 102 0
-17 -28 -90 -95 -102 0
9 60 73 86 103 0
9 60 73 -86 -103 0
9 60 -73 86 -103 0
9 60 -73 -86 103 0
9 -60 73 86 -103 0
9 -60 73 -86 103 0
9 -60 -73 86 103 0
9 -60 -73 -86 -103 0
-9 60 73 86 -103 0
-9 60 73 -86 103 0
-9 60 -73 86 103 0
-9 60 -73 -86 -103 0
-9 -60 73 86 103 0
-9 -60 73 -86 -103 0
-9 -60 -73 86 -103 0
-9 -60 -73 -86 103 0
41 92 96 104 105 0
41 92 96 -104 -105 0
41 92 -96 104 -105 0
41 92 -96 -104 105 0
41 -92 96 104 -105 0
41 -92 96 -104 105 0
41 -92 -96 104 105 0
41 -92 -96 -104 -105 0
-41 92 96 104 -105 0
-41 92 96 -104 105 0
-41 92 -96 104 105 0
-41 92 -96 -104 -105 0
-41 -92 96 104 105 0
-41 -92 96 -104 -105 0
-41 -92 -96 104 -105 0
-41 -92 -96 -104 105 0
42 54 67 106 -107 0
42 54 67 -106 107 0
42 54 -67 106 107 0
42 54 -67 -106 -107 0
42 -54 67 106 107 0
42 -54 67 -106 -107 0
42 -54 -67 106 -107 0
42 -54 -67 -106 107 0
-42 54 67 106 107 0
-42 54 67 -106 -107 0
-42 54 -67 106 -107 0
-42 54 -67 -106 107 0
-42 -54 67 106 -107 0
-42 -54 67 -106 107 0
-42 -54 -67 106 107 0
-42 -54 -67 -106 -107 0
84 104 108 109 110 0
84 104 108 -109 -110 0
84 104 -108 109 -110 0
84 104 -108 -109 110 0
84 -104 108 109 -110 0
84 -104 108 -109 110 0
84 -104 -108 109 110 0
84 -104 -108 -109 -110 0
-84 104 108 109 -110 0
-84 104 108 -109 110 0
-84 104 -108 109 110 0
-84 104 -108 -109 -110 0
-84 -104 108 109 110 0
-84 -104 108 -109 -110 0
-84 -104 -108 109 -110 0
-84 -104 -108 -109 110 0
18 49 58 61 -99 0
18 49 58 -61 99 0
18 49 -58 61 99 0
18 49 -58 -61 -99 0
18 -49 58 61 99 0
18 -49 58 -61 -99 0
18 -49 -58 61 -99 0
18 -49 -58 -61 99 0
-18 49 58 61 99 0
-18 49 58 -61 -99 0
-18 49 -58 61 -99 0
-18 49 -58 -61 99 0
-18 -49 58 61 -99 0
-18 -49 58 -61 99 0
-18 -49 -58 61 99 0
-18 -49 -58 -61 -99 0
33 55 111 112 -113 0
33 55 111 -112 113 0
33 55 -111 112 113 0
33 55 -111 -112 -113 0
33 -55 111 112 113 0
33 -55 111 -112 -113 0
33 -55 -111 112 -113 0
33 -55 -111 -112 113 0
-33 55 111 112 113 0
-33 55 111 -112 -113 0
-33 55 -111 112 -113 0
-33 55 -111 -112 113 0
-33 -55 111 112 -113 0
-33 -55 111 -112 113 0
-33 -55 -111 112 113 0
-33 -55 -111 -112 -113 0
4 63 97 114 115 0
4 63 97 -114 -115 0
4 63 -97 114 -115 0
4 63 -97 -114 115 0
4 -63 97 114 -115 0
4 -63 97 -114 115 0
4 -63 -97 114 115 0
4 -63 -97 -114 -115 0
-4 63 97 114 -115 0
-4 63 97 -114 115 0
-4 63 -97 114 115 0
-4 63 -97 -114 -115 0
-4 -63 97 114 115 0
-4 -63 97 -114 -115 0
-4 -63 -97 114 -115 0
-4 -63 -97 -114 115 0
59 68 74 105 116 0
59 68 74 -105 -116 0
59 68 -74 105 -116 0
59 68 -74 -105 116 0
59 -68 74 105 -116 0
59 -68 74 -105 116 0
59 -68 -74 105 116 0
59 -68 -74 -105 -116 0
-59 68 74 105 -116 0
-59 68 74 -105 116 0
-59 68 -74 105 116 0
-59 68 -74 -105 -116 0
-59 -68 74 105 116 0
-59 -68 74 -105 -116 0
-59 -68 -74 105 -116 0
-59 -68 -74 -105 116 0
19 77 108 117 -118 0
19 77 108 -117 118 0
19 77 -108 117 118 0
19 77 -108 -117 -118 0
19 -77 108 117 118 0
19 -77 108 -117 -118 0
19 -77 -108 117 -118 0
19 -77 -108 -117 118 0
-19 77 108 117 118 0
-19 77 108 -117 -118 0
-19 77 -108 117 -118 0
-19 77 -108 -117 118 0
-19 -77 108 117 -118 0
-19 -77 108 -117 118 0
-19 -77 -108 117 118 0
-19 -77 -108 -117 -118 0
5 81 91 114 117 0
5 81 91 -114 -117 0
5 81 -91 114 -117 0
5 81 -91 -114 117 0
5 -81 91 114 -117 0
5 -81 91 -114 117 0
5 -81 -91 114 117 0
5 -81 -91 -114 -117 0
-5 81 91 114 -117 0
-5 81 91 -114 117 0
-5 81 -91 114 117 0
-5 81 -91 -114 -117 0
-5 -81 91 114 117 0
-5 -81 91 -114 -117 0
-5 -81 -91 114 -117 0
-5 -81 -91 -114 117 0
14 100 109 118 -119 0
14 100 109 -118 119 0
14 100 -109 118 119 0
14 100 -109 -118 -119 0
14 -100 109 118 119 0
14 -100 109 -118 -119 0
14 -100 -109 118 -119 0
14 -100 -109 -118 119 0
-14 100 109 118 119 0
-14 100 109 -118 -119 0
-14 100 -109 118 -119 0
-14 100 -109 -118 119 0
-14 -100 109 118 -119 0
-14 -100 109 -118 119 0
-14 -100 -109 118 119 0
-14 -100 -109 -118 -119 0
69 98 111 120 -121 0
69 98 111 -120 121 0
69 98 -111 120 121 0
69 98 -111 -120 -121 0
69 -98 111 120 121 0
69 -98 111 -120 -121 0
69 -98 -111 120 -121 0
69 -98 -111 -120 121 0
-69 98 111 120 121 0
-69 98 111 -120 -121 0
-69 98 -111 120 -121 0
-69 98 -111 -120 121 0
-69 -98 111 120 -121 0
-69 -98 111 -120 121 0
-69 -98 -111 120 121 0
-69 -98 -111 -120 -121 0
15 106 120 122 123 0
15 106 120 -122 -123 0
15 106 -120 122 -123 0
15 106 -120 -122 123 0
15 -106 120 122 -123 0
15 -106 120 -122 123 0
15 -106 -120 122 123 0
15 -106 -120 -122 -123 0
-15 106 120 122 -123 0
-15 106 120 -122 123 0
-15 106 -120 122 123 0
-15 106 -120 -122 -123 0
-15 -106 120 122 123 0
-15 -106 120 -122 -123 0
-15 -106 -120 122 -123 0
-15 -106 -120 -122 123 0
56 70 110 112 -124 0
56 70 110 -112 124 0
56 70 -110 112 124 0
56 70 -110 -112 -124 0
56 -70 110 112 124 0
56 -70 110 -112 -124 0
56 -70 -110 112 -124 0
56 -70 -110 -112 124 0
-56 70 110 112 124 0
-56 70 110 -112 -124 0
-56 70 -110 112 -124 0
-56 70 -110 -112 124 0
-56 -70 110 112 -124 0
-56 -70 110 -112 124 0
-56 -70 -110 112 124 0
-56 -70 -110 -112 -124 0
78 85 88 107 121 0
78 85 88 -107 -121 0
78 85 -88 107 -121 0
78 85 -88 -107 121 0
78 -85 88 107 -121 0
78 -85 88 -107 121 0
78 -85 -88 107 121 0
78 -85 -88 -107 -121 0
-78 85 88 107 -121 0
-78 85 88 -107 121 0
-78 85 -88 107 121 0
-78 85 -88 -107 -121 0
-78 -85 88 107 121 0
-78 -85 88 -107 -121 0
-78 -85 -88 107 -121 0
-78 -85 -88 -107 121 0
34 38 75 122 124 0
34 38 75 -122 -124 0
34 38 -75 122 -124 0
34 38 -75 -122 124 0
34 -38 75 122 -124 0
34 -38 75 -122 124 0
34 -38 -75 122 124 0
34 -38 -75 -122 -124 0
-34 38 75 122 -124 0
-34 38 75 -122 124 0
-34 38 -75 122 124 0
-34 38 -75 -122 -124 0
-34 -38 75 122 124 0
-34 -38 75 -122 -124 0
-34 -38 -75 122 -124 0
-34 -38 -75 -122 124 0
10 20 115 116 -119 0
10 20 115 -116 119 0
10 20 -115 116 119 0
10 20 -115 -116 -119 0
10 -20 115 116 119 0
10 -20 115 -116 -119 0
10 -20 -115 116 -119 0
10 -20 -115 -116 119 0
-10 20 115 116 119 0
-10 20 115 -116 -119 0
-10 20 -115 116 -119 0
-10 20 -115 -116 119 0
-10 -20 115 116 -119 0
-10 -20 115 -116 119 0
-10 -20 -115 116 119 0
-10 -20 -115 -116 -119 0
87 89 93 102 113 0
87 89 93 -102 -113 0
87 89 -93 102 -113 0
87 89 -93 -102 113 0
87 -89 93 102 -113 0
87 -89 93 -102 113 0
87 -89 -93 102 113 0
87 -89 -93 -102 -113 0
-87 89 93 102 -113 0
-87 89 93 -102 113 0
-87 89 -93 102 113 0
-87 89 -93 -102 -113 0
-87 -89 93 102 113 0
-87 -89 93 -102 -113 0
-87 -89 -93 102 -113 0
-87 -89 -93 -102 113 0
29 39 50 64 79 0
29 39 50 -64 -79 0
29 39 -50 64 -79 0
29 39 -50 -64 79 0
29 -39 50 64 -79 0
29 -39 50 -64 79 0
29 -39 -50 64 79 0
29 -39 -50 -64 -79 0
-29 39 50 64 -79 0
-29 39 50 -64 79 0
-29 39 -50 64 79 0
-29 39 -50 -64 -79 0
-29 -39 50 64 79 0
-29 -39 50 -64 -79 0
-29 -39 -50 64 -79 0
-29 -39 -50 -64 79 0
51 76 82 94 125 0
51 76 82 -94 -125 0
51 76 -82 94 -125 0
51 76 -82 -94 125 0
51 -76 82 94 -125 0
51 -76 82 -94 125 0
51 -76 -82 94 125 0
51 -76 -82 -94 -125 0
-51 76 82 94 -125 0
-51 76 82 -94 125 0
-51 76 -82 94 125 0
-51 76 -82 -94 -125 0
-51 -76 82 94 125 0
-51 -76 82 -94 -125 0
-51 -76 -82 94 -125 0
-51 -76 -82 -94 125 0
62 101 103 123 -125 0
62 101 103 -123 125 0
62 101 -103 123 125 0
62 101 -103 -123 -125 0
62 -101 103 123 125 0
62 -101 103 -123 -125 0
62 -101 -103 123 -125 0
62 -101 -103 -123 125 0
-62 101 103 123 125 0
-62 101 103 -123 -125 0
-62 101 -103 123 -125 0
-62 101 -103 -123 125 0
-62 -101 103 123 -125 0
-62 -101 103 -123 125 0
-62 -101 -103 123 125 0
-62 -101 -103 -123 -125 0
